benchmarks/VRPTW/TSPTW/solution/n40w80.005.txt.solution
1 30 31 10 17 38 35 9 7 15 33 23 26 8 3 13 29 19 28 5 22 4 24 2 21 39 16 18 34 20 14 27 11 36 40 25 41 6 12 32 37 
344
